width = 60;
height_max = 529;
n = 73;
DX = [34, 13, 13, 10, 10, 6, 6, 25, 25, 21, 16, 16, 21, 21, 5, 5, 4, 4, 6, 12, 12, 23, 7, 7, 2, 2, 6, 6, 14, 14, 16, 16, 14, 14, 14, 3, 3, 11, 11, 6, 6, 33, 12, 12, 16, 12, 12, 4, 4, 3, 3, 6, 6, 6, 6, 5, 5, 3, 3, 9, 6, 6, 2, 2, 8, 8, 10, 3, 3, 3, 3, 2, 2];
DY = [6, 3, 5, 12, 12, 7, 15, 7, 15, 12, 7, 5, 3, 5, 7, 5, 1, 10, 13, 13, 9, 6, 3, 5, 1, 10, 6, 5, 7, 6, 3, 5, 6, 5, 13, 2, 7, 2, 7, 7, 6, 14, 4, 3, 18, 3, 18, 4, 3, 1, 2, 9, 9, 1, 2, 7, 18, 9, 9, 18, 5, 2, 12, 9, 3, 9, 9, 5, 2, 18, 7, 3, 9];